c "182685.clq"
p edge 100 384
e 1 5
e 1 8
e 1 17
e 1 26
e 1 31
e 1 40
e 1 54
e 1 68
e 1 71
e 1 86
e 1 91
e 2 5
e 2 6
e 2 25
e 3 5
e 3 6
e 3 7
e 3 10
e 3 15
e 3 16
e 3 22
e 3 24
e 3 26
e 3 28
e 3 30
e 3 31
e 3 35
e 3 45
e 3 47
e 3 76
e 3 83
e 3 85
e 3 92
e 4 5
e 4 6
e 4 7
e 4 9
e 4 14
e 4 15
e 4 16
e 4 17
e 4 18
e 4 20
e 4 21
e 4 29
e 4 30
e 4 33
e 4 37
e 4 41
e 4 49
e 4 53
e 4 54
e 4 56
e 4 58
e 4 69
e 4 70
e 4 74
e 4 77
e 4 97
e 5 6
e 5 7
e 5 8
e 5 9
e 5 10
e 5 11
e 5 12
e 5 13
e 5 16
e 5 19
e 5 20
e 5 21
e 5 22
e 5 23
e 5 26
e 5 29
e 5 36
e 5 40
e 5 41
e 5 42
e 5 44
e 5 47
e 5 48
e 5 57
e 5 65
e 5 73
e 5 83
e 5 88
e 5 97
e 6 7
e 6 8
e 6 9
e 6 11
e 6 16
e 6 17
e 6 18
e 6 19
e 6 24
e 6 25
e 6 28
e 6 31
e 6 32
e 6 33
e 6 34
e 6 38
e 6 39
e 6 44
e 6 45
e 6 48
e 6 50
e 6 53
e 6 65
e 6 72
e 6 75
e 6 77
e 6 78
e 6 82
e 6 83
e 6 87
e 6 90
e 6 95
e 6 96
e 6 98
e 7 8
e 7 9
e 7 11
e 7 12
e 7 19
e 7 27
e 7 38
e 7 46
e 7 49
e 7 59
e 7 61
e 7 79
e 7 82
e 7 88
e 7 95
e 7 100
e 8 10
e 8 11
e 8 13
e 8 15
e 8 18
e 8 37
e 8 43
e 8 48
e 8 62
e 8 69
e 8 80
e 8 87
e 8 94
e 9 10
e 9 12
e 9 22
e 9 23
e 9 24
e 9 40
e 9 49
e 9 54
e 9 59
e 9 60
e 9 63
e 9 64
e 9 67
e 9 80
e 9 94
e 9 96
e 9 97
e 9 100
e 10 13
e 10 14
e 10 17
e 10 31
e 10 32
e 10 38
e 10 39
e 10 40
e 10 43
e 10 48
e 10 52
e 10 60
e 10 68
e 10 76
e 11 12
e 11 14
e 11 18
e 11 23
e 11 24
e 11 25
e 11 26
e 11 27
e 11 32
e 11 38
e 11 66
e 11 81
e 11 87
e 11 92
e 11 95
e 12 13
e 12 14
e 12 41
e 12 77
e 12 85
e 13 15
e 13 20
e 13 25
e 13 30
e 13 53
e 14 41
e 14 45
e 14 58
e 14 66
e 14 86
e 14 91
e 15 21
e 15 45
e 15 61
e 15 67
e 15 74
e 15 78
e 15 93
e 15 100
e 16 21
e 16 28
e 16 33
e 16 52
e 16 57
e 16 64
e 16 66
e 16 69
e 16 71
e 16 79
e 16 96
e 16 98
e 17 19
e 17 96
e 18 20
e 18 22
e 18 27
e 18 32
e 18 34
e 18 50
e 18 51
e 18 72
e 19 55
e 19 59
e 19 61
e 19 65
e 19 76
e 19 77
e 19 81
e 19 86
e 19 89
e 20 23
e 20 29
e 20 35
e 20 39
e 20 46
e 20 58
e 20 74
e 21 74
e 22 36
e 22 37
e 22 69
e 22 79
e 22 87
e 22 93
e 23 27
e 23 53
e 23 68
e 24 84
e 25 28
e 25 29
e 25 51
e 25 88
e 25 99
e 26 35
e 26 37
e 26 44
e 26 67
e 27 30
e 27 42
e 27 47
e 27 55
e 27 90
e 28 33
e 28 51
e 28 55
e 28 56
e 28 64
e 28 75
e 28 80
e 29 34
e 29 39
e 29 44
e 29 73
e 29 80
e 29 82
e 30 49
e 30 62
e 31 34
e 31 35
e 31 36
e 31 42
e 31 60
e 31 61
e 31 94
e 32 57
e 33 55
e 34 42
e 34 43
e 34 54
e 34 88
e 34 98
e 35 36
e 35 57
e 35 82
e 35 90
e 36 46
e 36 56
e 36 62
e 36 70
e 36 84
e 37 60
e 38 62
e 38 71
e 38 78
e 39 81
e 39 84
e 40 43
e 40 65
e 42 46
e 42 56
e 42 79
e 43 52
e 43 63
e 43 70
e 44 47
e 44 50
e 44 78
e 44 86
e 45 52
e 45 66
e 46 63
e 48 50
e 49 91
e 50 51
e 50 63
e 50 85
e 50 100
e 51 73
e 52 98
e 55 58
e 55 59
e 55 64
e 55 68
e 56 85
e 56 90
e 56 93
e 57 72
e 58 89
e 58 99
e 61 67
e 61 70
e 61 92
e 61 95
e 62 83
e 64 99
e 67 71
e 67 72
e 67 73
e 67 75
e 69 89
e 69 92
e 71 75
e 71 81
e 71 93
e 72 84
e 74 76
e 74 97
e 75 91
e 80 99
e 85 94
e 86 89
